10 10 5 4 1500
1.0 0.49 2.0 0.49 3.0 0.32 4.0 0.3 1.0 0.43 0.0 0.17 4.0 0.34 2.0 0.37 3.0 0.25 0.0 0.37
4.0 0.31 3.0 0.44 3.0 0.31 2.0 0.25 4.0 0.23 0.0 0.3 1.0 0.33 2.0 0.16 0.0 0.4 1.0 0.2
2.0 0.43 1.0 0.17 3.0 0.22 4.0 0.47 1.0 0.26 0.0 0.31 0.0 0.2 4.0 0.33 3.0 0.39 2.0 0.22
3.0 0.32 4.0 0.32 0.0 0.26 1.0 0.17 4.0 0.34 0.0 0.32 2.0 0.4 1.0 0.29 2.0 0.28 3.0 0.33
2.0 0.27 3.0 0.28 1.0 0.15 0.0 0.44 0.0 0.44 4.0 0.46 4.0 0.36 1.0 0.36 3.0 0.36 2.0 0.5
4.0 0.32 3.0 0.49 2.0 0.24 0.0 0.34 4.0 0.23 0.0 0.25 3.0 0.3 2.0 0.49 1.0 0.25 1.0 0.49
4.0 0.18 0.0 0.32 3.0 0.22 0.0 0.37 2.0 0.32 1.0 0.29 2.0 0.15 1.0 0.37 4.0 0.22 3.0 0.39
1.0 0.35 3.0 0.28 3.0 0.37 2.0 0.15 4.0 0.5 0.0 0.49 2.0 0.49 4.0 0.24 1.0 0.38 0.0 0.47
2.0 0.34 1.0 0.21 4.0 0.16 3.0 0.47 4.0 0.29 0.0 0.35 1.0 0.44 3.0 0.37 0.0 0.39 2.0 0.26
2.0 0.17 1.0 0.44 3.0 0.42 0.0 0.26 0.0 0.29 4.0 0.19 1.0 0.3 4.0 0.33 2.0 0.32 3.0 0.2
